p tw 144 23761 2 
1 3 
1 4 
1 5 
1 6 
1 7 
1 8 
1 9 
1 10 
1 11 
1 12 
1 13 
1 14 
1 25 
1 27 
1 37 
1 47 
1 49 
1 55 
1 61 
1 65 
1 73 
1 84 
1 85 
1 93 
1 97 
1 102 
1 109 
1 118 
1 121 
1 128 
1 133 
1 136 
2 3 
2 4 
2 5 
2 6 
2 7 
2 8 
2 9 
2 10 
2 11 
2 12 
2 13 
2 14 
2 26 
2 36 
2 38 
2 43 
2 50 
2 58 
2 62 
2 69 
2 74 
2 76 
2 86 
2 95 
2 98 
2 104 
2 110 
2 113 
2 122 
2 126 
2 134 
2 135 
3 4 
3 5 
3 6 
3 7 
3 8 
3 9 
3 10 
3 11 
3 12 
3 15 
3 20 
3 27 
3 31 
3 39 
3 48 
3 49 
3 51 
3 63 
3 64 
3 75 
3 81 
3 86 
3 87 
3 99 
3 107 
3 111 
3 114 
3 123 
3 125 
3 135 
3 142 
4 5 
4 6 
4 7 
4 8 
4 9 
4 10 
4 11 
4 12 
4 15 
4 16 
4 25 
4 28 
4 38 
4 40 
4 52 
4 53 
4 64 
4 72 
4 76 
4 78 
4 88 
4 91 
4 100 
4 106 
4 112 
4 116 
4 124 
4 131 
4 136 
4 141 
5 6 
5 7 
5 8 
5 9 
5 10 
5 11 
5 12 
5 17 
5 18 
5 28 
5 29 
5 41 
5 45 
5 53 
5 59 
5 65 
5 70 
5 77 
5 80 
5 87 
5 89 
5 97 
5 101 
5 113 
5 120 
5 122 
5 125 
5 137 
5 139 
6 7 
6 8 
6 9 
6 10 
6 11 
6 12 
6 18 
6 19 
6 30 
6 34 
6 40 
6 42 
6 54 
6 57 
6 62 
6 66 
6 73 
6 78 
6 89 
6 90 
6 102 
6 108 
6 114 
6 119 
6 123 
6 126 
6 138 
6 140 
7 8 
7 9 
7 10 
7 11 
7 12 
7 19 
7 24 
7 31 
7 35 
7 43 
7 46 
7 51 
7 55 
7 67 
7 68 
7 74 
7 79 
7 90 
7 91 
7 101 
7 103 
7 112 
7 115 
7 127 
7 129 
7 133 
7 139 
8 9 
8 10 
8 11 
8 12 
8 17 
8 20 
8 30 
8 32 
8 37 
8 44 
8 52 
8 56 
8 63 
8 68 
8 80 
8 83 
8 92 
8 96 
8 104 
8 105 
8 115 
8 116 
8 128 
8 130 
8 134 
8 140 
9 10 
9 11 
9 12 
9 21 
9 23 
9 29 
9 33 
9 44 
9 45 
9 57 
9 60 
9 61 
9 69 
9 79 
9 81 
9 93 
9 94 
9 99 
9 105 
9 110 
9 117 
9 124 
9 129 
9 138 
9 141 
10 11 
10 12 
10 21 
10 22 
10 32 
10 34 
10 41 
10 46 
10 54 
10 58 
10 67 
10 70 
10 75 
10 82 
10 88 
10 94 
10 98 
10 106 
10 109 
10 118 
10 130 
10 132 
10 142 
10 143 
11 12 
11 22 
11 23 
11 26 
11 35 
11 39 
11 47 
11 56 
11 59 
11 66 
11 71 
11 77 
11 83 
11 85 
11 95 
11 100 
11 107 
11 117 
11 119 
11 127 
11 131 
11 143 
11 144 
12 16 
12 24 
12 33 
12 36 
12 42 
12 48 
12 50 
12 60 
12 71 
12 72 
12 82 
12 84 
12 92 
12 96 
12 103 
12 108 
12 111 
12 120 
12 121 
12 132 
12 137 
12 144 
13 14 
13 15 
13 16 
13 17 
13 18 
13 19 
13 20 
13 21 
13 22 
13 23 
13 24 
13 25 
13 36 
13 37 
13 43 
13 49 
13 58 
13 61 
13 69 
13 73 
13 76 
13 85 
13 95 
13 97 
13 104 
13 109 
13 113 
13 121 
13 126 
13 133 
13 135 
14 15 
14 16 
14 17 
14 18 
14 19 
14 20 
14 21 
14 22 
14 23 
14 24 
14 26 
14 27 
14 38 
14 47 
14 50 
14 55 
14 62 
14 65 
14 74 
14 84 
14 86 
14 93 
14 98 
14 102 
14 110 
14 118 
14 122 
14 128 
14 134 
14 136 
15 16 
15 17 
15 18 
15 19 
15 20 
15 21 
15 22 
15 23 
15 24 
15 25 
15 27 
15 38 
15 39 
15 51 
15 53 
15 63 
15 72 
15 75 
15 78 
15 87 
15 91 
15 99 
15 106 
15 111 
15 116 
15 123 
15 131 
15 135 
15 141 
16 17 
16 18 
16 19 
16 20 
16 21 
16 22 
16 23 
16 24 
16 28 
16 33 
16 40 
16 42 
16 50 
16 52 
16 64 
16 71 
16 76 
16 82 
16 88 
16 92 
16 100 
16 103 
16 111 
16 112 
16 121 
16 124 
16 136 
16 137 
17 18 
17 19 
17 20 
17 21 
17 22 
17 23 
17 24 
17 29 
17 30 
17 37 
17 41 
17 52 
17 53 
17 63 
17 65 
17 77 
17 83 
17 89 
17 96 
17 101 
17 105 
17 113 
17 115 
17 125 
17 130 
17 134 
17 137 
18 19 
18 20 
18 21 
18 22 
18 23 
18 24 
18 28 
18 30 
18 42 
18 45 
18 54 
18 59 
18 66 
18 70 
18 78 
18 80 
18 87 
18 90 
18 97 
18 102 
18 114 
18 120 
18 122 
18 126 
18 138 
18 139 
19 20 
19 21 
19 22 
19 23 
19 24 
19 31 
19 34 
19 40 
19 43 
19 55 
19 57 
19 62 
19 67 
19 73 
19 79 
19 89 
19 91 
19 103 
19 108 
19 115 
19 119 
19 123 
19 127 
19 139 
19 140 
20 21 
20 22 
20 23 
20 24 
20 31 
20 32 
20 44 
20 48 
20 49 
20 56 
20 64 
20 68 
20 80 
20 81 
20 86 
20 92 
20 104 
20 107 
20 114 
20 116 
20 125 
20 128 
20 140 
20 142 
21 22 
21 23 
21 24 
21 32 
21 33 
21 41 
21 45 
21 54 
21 57 
21 67 
21 69 
21 75 
21 81 
21 88 
21 93 
21 98 
21 105 
21 109 
21 117 
21 129 
21 132 
21 141 
21 143 
22 23 
22 24 
22 26 
22 34 
22 39 
22 46 
22 56 
22 58 
22 66 
22 70 
22 77 
22 82 
22 85 
22 94 
22 100 
22 106 
22 117 
22 118 
22 127 
22 130 
22 142 
22 144 
23 24 
23 29 
23 35 
23 44 
23 47 
23 59 
23 60 
23 61 
23 71 
23 79 
23 83 
23 94 
23 95 
23 99 
23 107 
23 110 
23 119 
23 124 
23 131 
23 138 
23 143 
24 35 
24 36 
24 46 
24 48 
24 51 
24 60 
24 68 
24 72 
24 74 
24 84 
24 90 
24 96 
24 101 
24 108 
24 112 
24 120 
24 129 
24 132 
24 133 
24 144 
25 26 
25 27 
25 28 
25 29 
25 30 
25 31 
25 32 
25 33 
25 34 
25 35 
25 36 
25 37 
25 38 
25 49 
25 53 
25 61 
25 72 
25 73 
25 78 
25 85 
25 91 
25 97 
25 106 
25 109 
25 116 
25 121 
25 131 
25 133 
25 141 
26 27 
26 28 
26 29 
26 30 
26 31 
26 32 
26 33 
26 34 
26 35 
26 36 
26 38 
26 39 
26 50 
26 56 
26 62 
26 66 
26 74 
26 77 
26 85 
26 86 
26 98 
26 100 
26 110 
26 117 
26 122 
26 127 
26 134 
26 144 
27 28 
27 29 
27 30 
27 31 
27 32 
27 33 
27 34 
27 35 
27 36 
27 39 
27 47 
27 51 
27 55 
27 63 
27 65 
27 75 
27 84 
27 87 
27 93 
27 99 
27 102 
27 111 
27 118 
27 123 
27 128 
27 135 
27 136 
28 29 
28 30 
28 31 
28 32 
28 33 
28 34 
28 35 
28 36 
28 40 
28 45 
28 52 
28 59 
28 64 
28 70 
28 76 
28 80 
28 87 
28 88 
28 97 
28 100 
28 112 
28 120 
28 122 
28 124 
28 136 
28 139 
29 30 
29 31 
29 32 
29 33 
29 34 
29 35 
29 36 
29 41 
29 44 
29 53 
29 60 
29 61 
29 65 
29 77 
29 79 
29 89 
29 94 
29 99 
29 101 
29 110 
29 113 
29 124 
29 125 
29 137 
29 138 
30 31 
30 32 
30 33 
30 34 
30 35 
30 36 
30 37 
30 42 
30 52 
30 54 
30 63 
30 66 
30 78 
30 83 
30 90 
30 96 
30 102 
30 105 
30 114 
30 115 
30 126 
30 130 
30 134 
30 138 
31 32 
31 33 
31 34 
31 35 
31 36 
31 43 
31 48 
31 49 
31 55 
31 64 
31 67 
31 79 
31 81 
31 86 
31 91 
31 103 
31 107 
31 114 
31 115 
31 125 
31 127 
31 139 
31 142 
32 33 
32 34 
32 35 
32 36 
32 41 
32 44 
32 54 
32 56 
32 67 
32 68 
32 75 
32 80 
32 88 
32 92 
32 98 
32 104 
32 109 
32 116 
32 128 
32 132 
32 140 
32 143 
33 34 
33 35 
33 36 
33 42 
33 45 
33 50 
33 57 
33 69 
33 71 
33 81 
33 82 
33 92 
33 93 
33 103 
33 105 
33 111 
33 117 
33 121 
33 129 
33 137 
33 141 
34 35 
34 36 
34 40 
34 46 
34 57 
34 58 
34 62 
34 70 
34 73 
34 82 
34 89 
34 94 
34 106 
34 108 
34 118 
34 119 
34 123 
34 130 
34 140 
34 142 
35 36 
35 46 
35 47 
35 51 
35 59 
35 68 
35 71 
35 74 
35 83 
35 90 
35 95 
35 101 
35 107 
35 112 
35 119 
35 129 
35 131 
35 133 
35 143 
36 43 
36 48 
36 58 
36 60 
36 69 
36 72 
36 76 
36 84 
36 95 
36 96 
36 104 
36 108 
36 113 
36 120 
36 126 
36 132 
36 135 
36 144 
37 38 
37 39 
37 40 
37 41 
37 42 
37 43 
37 44 
37 45 
37 46 
37 47 
37 48 
37 49 
37 52 
37 61 
37 63 
37 73 
37 83 
37 85 
37 96 
37 97 
37 105 
37 109 
37 115 
37 121 
37 130 
37 133 
37 134 
38 39 
38 40 
38 41 
38 42 
38 43 
38 44 
38 45 
38 46 
38 47 
38 48 
38 50 
38 53 
38 62 
38 72 
38 74 
38 78 
38 86 
38 91 
38 98 
38 106 
38 110 
38 116 
38 122 
38 131 
38 134 
38 141 
39 40 
39 41 
39 42 
39 43 
39 44 
39 45 
39 46 
39 47 
39 48 
39 51 
39 56 
39 63 
39 66 
39 75 
39 77 
39 85 
39 87 
39 99 
39 100 
39 111 
39 117 
39 123 
39 127 
39 135 
39 144 
40 41 
40 42 
40 43 
40 44 
40 45 
40 46 
40 47 
40 48 
40 52 
40 57 
40 62 
40 64 
40 73 
40 76 
40 88 
40 89 
40 100 
40 108 
40 112 
40 119 
40 123 
40 124 
40 136 
40 140 
41 42 
41 43 
41 44 
41 45 
41 46 
41 47 
41 48 
41 53 
41 54 
41 65 
41 67 
41 75 
41 77 
41 88 
41 89 
41 98 
41 101 
41 109 
41 113 
41 125 
41 132 
41 137 
41 143 
42 43 
42 44 
42 45 
42 46 
42 47 
42 48 
42 50 
42 54 
42 66 
42 71 
42 78 
42 82 
42 90 
42 92 
42 102 
42 103 
42 111 
42 114 
42 121 
42 126 
42 137 
42 138 
43 44 
43 45 
43 46 
43 47 
43 48 
43 55 
43 58 
43 67 
43 69 
43 76 
43 79 
43 91 
43 95 
43 103 
43 104 
43 113 
43 115 
43 126 
43 127 
43 135 
43 139 
44 45 
44 46 
44 47 
44 48 
44 56 
44 60 
44 61 
44 68 
44 79 
44 80 
44 92 
44 94 
44 99 
44 104 
44 110 
44 116 
44 124 
44 128 
44 138 
44 140 
45 46 
45 47 
45 48 
45 57 
45 59 
45 69 
45 70 
45 80 
45 81 
45 87 
45 93 
45 97 
45 105 
45 117 
45 120 
45 122 
45 129 
45 139 
45 141 
46 47 
46 48 
46 51 
46 58 
46 68 
46 70 
46 74 
46 82 
46 90 
46 94 
46 101 
46 106 
46 112 
46 118 
46 129 
46 130 
46 133 
46 142 
47 48 
47 55 
47 59 
47 65 
47 71 
47 83 
47 84 
47 93 
47 95 
47 102 
47 107 
47 118 
47 119 
47 128 
47 131 
47 136 
47 143 
48 49 
48 60 
48 64 
48 72 
48 81 
48 84 
48 86 
48 96 
48 107 
48 108 
48 114 
48 120 
48 125 
48 132 
48 142 
48 144 
49 50 
49 51 
49 52 
49 53 
49 54 
49 55 
49 56 
49 57 
49 58 
49 59 
49 60 
49 61 
49 64 
49 73 
49 81 
49 85 
49 86 
49 97 
49 107 
49 109 
49 114 
49 121 
49 125 
49 133 
49 142 
50 51 
50 52 
50 53 
50 54 
50 55 
50 56 
50 57 
50 58 
50 59 
50 60 
50 62 
50 71 
50 74 
50 82 
50 86 
50 92 
50 98 
50 103 
50 110 
50 111 
50 121 
50 122 
50 134 
50 137 
51 52 
51 53 
51 54 
51 55 
51 56 
51 57 
51 58 
51 59 
51 60 
51 63 
51 68 
51 74 
51 75 
51 87 
51 90 
51 99 
51 101 
51 111 
51 112 
51 123 
51 129 
51 133 
51 135 
52 53 
52 54 
52 55 
52 56 
52 57 
52 58 
52 59 
52 60 
52 63 
52 64 
52 76 
52 83 
52 88 
52 96 
52 100 
52 105 
52 112 
52 115 
52 124 
52 130 
52 134 
52 136 
53 54 
53 55 
53 56 
53 57 
53 58 
53 59 
53 60 
53 65 
53 72 
53 77 
53 78 
53 89 
53 91 
53 101 
53 106 
53 113 
53 116 
53 125 
53 131 
53 137 
53 141 
54 55 
54 56 
54 57 
54 58 
54 59 
54 60 
54 66 
54 67 
54 75 
54 78 
54 88 
54 90 
54 98 
54 102 
54 109 
54 114 
54 126 
54 132 
54 138 
54 143 
55 56 
55 57 
55 58 
55 59 
55 60 
55 65 
55 67 
55 79 
55 84 
55 91 
55 93 
55 102 
55 103 
55 115 
55 118 
55 127 
55 128 
55 136 
55 139 
56 57 
56 58 
56 59 
56 60 
56 66 
56 68 
56 77 
56 80 
56 85 
56 92 
56 100 
56 104 
56 116 
56 117 
56 127 
56 128 
56 140 
56 144 
57 58 
57 59 
57 60 
57 62 
57 69 
57 73 
57 81 
57 89 
57 93 
57 105 
57 108 
57 117 
57 119 
57 123 
57 129 
57 140 
57 141 
58 59 
58 60 
58 69 
58 70 
58 76 
58 82 
58 94 
58 95 
58 104 
58 106 
58 113 
58 118 
58 126 
58 130 
58 135 
58 142 
59 60 
59 70 
59 71 
59 80 
59 83 
59 87 
59 95 
59 97 
59 107 
59 119 
59 120 
59 122 
59 131 
59 139 
59 143 
60 61 
60 72 
60 79 
60 84 
60 94 
60 96 
60 99 
60 108 
60 110 
60 120 
60 124 
60 132 
60 138 
60 144 
61 62 
61 63 
61 64 
61 65 
61 66 
61 67 
61 68 
61 69 
61 70 
61 71 
61 72 
61 73 
61 79 
61 85 
61 94 
61 97 
61 99 
61 109 
61 110 
61 121 
61 124 
61 133 
61 138 
62 63 
62 64 
62 65 
62 66 
62 67 
62 68 
62 69 
62 70 
62 71 
62 72 
62 73 
62 74 
62 86 
62 89 
62 98 
62 108 
62 110 
62 119 
62 122 
62 123 
62 134 
62 140 
63 64 
63 65 
63 66 
63 67 
63 68 
63 69 
63 70 
63 71 
63 72 
63 75 
63 83 
63 87 
63 96 
63 99 
63 105 
63 111 
63 115 
63 123 
63 130 
63 134 
63 135 
64 65 
64 66 
64 67 
64 68 
64 69 
64 70 
64 71 
64 72 
64 76 
64 81 
64 86 
64 88 
64 100 
64 107 
64 112 
64 114 
64 124 
64 125 
64 136 
64 142 
65 66 
65 67 
65 68 
65 69 
65 70 
65 71 
65 72 
65 77 
65 84 
65 89 
65 93 
65 101 
65 102 
65 113 
65 118 
65 125 
65 128 
65 136 
65 137 
66 67 
66 68 
66 69 
66 70 
66 71 
66 72 
66 77 
66 78 
66 85 
66 90 
66 100 
66 102 
66 114 
66 117 
66 126 
66 127 
66 138 
66 144 
67 68 
67 69 
67 70 
67 71 
67 72 
67 75 
67 79 
67 88 
67 91 
67 98 
67 103 
67 109 
67 115 
67 127 
67 132 
67 139 
67 143 
68 69 
68 70 
68 71 
68 72 
68 74 
68 80 
68 90 
68 92 
68 101 
68 104 
68 112 
68 116 
68 128 
68 129 
68 133 
68 140 
69 70 
69 71 
69 72 
69 76 
69 81 
69 93 
69 95 
69 104 
69 105 
69 113 
69 117 
69 126 
69 129 
69 135 
69 141 
70 71 
70 72 
70 80 
70 82 
70 87 
70 94 
70 97 
70 106 
70 118 
70 120 
70 122 
70 130 
70 139 
70 142 
71 72 
71 82 
71 83 
71 92 
71 95 
71 103 
71 107 
71 111 
71 119 
71 121 
71 131 
71 137 
71 143 
72 78 
72 84 
72 91 
72 96 
72 106 
72 108 
72 116 
72 120 
72 131 
72 132 
72 141 
72 144 
73 74 
73 75 
73 76 
73 77 
73 78 
73 79 
73 80 
73 81 
73 82 
73 83 
73 84 
73 85 
73 89 
73 97 
73 108 
73 109 
73 119 
73 121 
73 123 
73 133 
73 140 
74 75 
74 76 
74 77 
74 78 
74 79 
74 80 
74 81 
74 82 
74 83 
74 84 
74 86 
74 90 
74 98 
74 101 
74 110 
74 112 
74 122 
74 129 
74 133 
74 134 
75 76 
75 77 
75 78 
75 79 
75 80 
75 81 
75 82 
75 83 
75 84 
75 87 
75 88 
75 98 
75 99 
75 109 
75 111 
75 123 
75 132 
75 135 
75 143 
76 77 
76 78 
76 79 
76 80 
76 81 
76 82 
76 83 
76 84 
76 88 
76 95 
76 100 
76 104 
76 112 
76 113 
76 124 
76 126 
76 135 
76 136 
77 78 
77 79 
77 80 
77 81 
77 82 
77 83 
77 84 
77 85 
77 89 
77 100 
77 101 
77 113 
77 117 
77 125 
77 127 
77 137 
77 144 
78 79 
78 80 
78 81 
78 82 
78 83 
78 84 
78 90 
78 91 
78 102 
78 106 
78 114 
78 116 
78 126 
78 131 
78 138 
78 141 
79 80 
79 81 
79 82 
79 83 
79 84 
79 91 
79 94 
79 99 
79 103 
79 110 
79 115 
79 124 
79 127 
79 138 
79 139 
80 81 
80 82 
80 83 
80 84 
80 87 
80 92 
80 97 
80 104 
80 116 
80 120 
80 122 
80 128 
80 139 
80 140 
81 82 
81 83 
81 84 
81 86 
81 93 
81 105 
81 107 
81 114 
81 117 
81 125 
81 129 
81 141 
81 142 
82 83 
82 84 
82 92 
82 94 
82 103 
82 106 
82 111 
82 118 
82 121 
82 130 
82 137 
82 142 
83 84 
83 95 
83 96 
83 105 
83 107 
83 115 
83 119 
83 130 
83 131 
83 134 
83 143 
84 93 
84 96 
84 102 
84 108 
84 118 
84 120 
84 128 
84 132 
84 136 
84 144 
85 86 
85 87 
85 88 
85 89 
85 90 
85 91 
85 92 
85 93 
85 94 
85 95 
85 96 
85 97 
85 100 
85 109 
85 117 
85 121 
85 127 
85 133 
85 144 
86 87 
86 88 
86 89 
86 90 
86 91 
86 92 
86 93 
86 94 
86 95 
86 96 
86 98 
86 107 
86 110 
86 114 
86 122 
86 125 
86 134 
86 142 
87 88 
87 89 
87 90 
87 91 
87 92 
87 93 
87 94 
87 95 
87 96 
87 97 
87 99 
87 111 
87 120 
87 122 
87 123 
87 135 
87 139 
88 89 
88 90 
88 91 
88 92 
88 93 
88 94 
88 95 
88 96 
88 98 
88 100 
88 109 
88 112 
88 124 
88 132 
88 136 
88 143 
89 90 
89 91 
89 92 
89 93 
89 94 
89 95 
89 96 
89 101 
89 108 
89 113 
89 119 
89 123 
89 125 
89 137 
89 140 
90 91 
90 92 
90 93 
90 94 
90 95 
90 96 
90 101 
90 102 
90 112 
90 114 
90 126 
90 129 
90 133 
90 138 
91 92 
91 93 
91 94 
91 95 
91 96 
91 103 
91 106 
91 115 
91 116 
91 127 
91 131 
91 139 
91 141 
92 93 
92 94 
92 95 
92 96 
92 103 
92 104 
92 111 
92 116 
92 121 
92 128 
92 137 
92 140 
93 94 
93 95 
93 96 
93 102 
93 105 
93 117 
93 118 
93 128 
93 129 
93 136 
93 141 
94 95 
94 96 
94 99 
94 106 
94 110 
94 118 
94 124 
94 130 
94 138 
94 142 
95 96 
95 104 
95 107 
95 113 
95 119 
95 126 
95 131 
95 135 
95 143 
96 105 
96 108 
96 115 
96 120 
96 130 
96 132 
96 134 
96 144 
97 98 
97 99 
97 100 
97 101 
97 102 
97 103 
97 104 
97 105 
97 106 
97 107 
97 108 
97 109 
97 120 
97 121 
97 122 
97 133 
97 139 
98 99 
98 100 
98 101 
98 102 
98 103 
98 104 
98 105 
98 106 
98 107 
98 108 
98 109 
98 110 
98 122 
98 132 
98 134 
98 143 
99 100 
99 101 
99 102 
99 103 
99 104 
99 105 
99 106 
99 107 
99 108 
99 110 
99 111 
99 123 
99 124 
99 135 
99 138 
100 101 
100 102 
100 103 
100 104 
100 105 
100 106 
100 107 
100 108 
100 112 
100 117 
100 124 
100 127 
100 136 
100 144 
101 102 
101 103 
101 104 
101 105 
101 106 
101 107 
101 108 
101 112 
101 113 
101 125 
101 129 
101 133 
101 137 
102 103 
102 104 
102 105 
102 106 
102 107 
102 108 
102 114 
102 118 
102 126 
102 128 
102 136 
102 138 
103 104 
103 105 
103 106 
103 107 
103 108 
103 111 
103 115 
103 121 
103 127 
103 137 
103 139 
104 105 
104 106 
104 107 
104 108 
104 113 
104 116 
104 126 
104 128 
104 135 
104 140 
105 106 
105 107 
105 108 
105 115 
105 117 
105 129 
105 130 
105 134 
105 141 
106 107 
106 108 
106 116 
106 118 
106 130 
106 131 
106 141 
106 142 
107 108 
107 114 
107 119 
107 125 
107 131 
107 142 
107 143 
108 119 
108 120 
108 123 
108 132 
108 140 
108 144 
109 110 
109 111 
109 112 
109 113 
109 114 
109 115 
109 116 
109 117 
109 118 
109 119 
109 120 
109 121 
109 132 
109 133 
109 143 
110 111 
110 112 
110 113 
110 114 
110 115 
110 116 
110 117 
110 118 
110 119 
110 120 
110 122 
110 124 
110 134 
110 138 
111 112 
111 113 
111 114 
111 115 
111 116 
111 117 
111 118 
111 119 
111 120 
111 121 
111 123 
111 135 
111 137 
112 113 
112 114 
112 115 
112 116 
112 117 
112 118 
112 119 
112 120 
112 124 
112 129 
112 133 
112 136 
113 114 
113 115 
113 116 
113 117 
113 118 
113 119 
113 120 
113 125 
113 126 
113 135 
113 137 
114 115 
114 116 
114 117 
114 118 
114 119 
114 120 
114 125 
114 126 
114 138 
114 142 
115 116 
115 117 
115 118 
115 119 
115 120 
115 127 
115 130 
115 134 
115 139 
116 117 
116 118 
116 119 
116 120 
116 128 
116 131 
116 140 
116 141 
117 118 
117 119 
117 120 
117 127 
117 129 
117 141 
117 144 
118 119 
118 120 
118 128 
118 130 
118 136 
118 142 
119 120 
119 123 
119 131 
119 140 
119 143 
120 122 
120 132 
120 139 
120 144 
121 122 
121 123 
121 124 
121 125 
121 126 
121 127 
121 128 
121 129 
121 130 
121 131 
121 132 
121 133 
121 137 
122 123 
122 124 
122 125 
122 126 
122 127 
122 128 
122 129 
122 130 
122 131 
122 132 
122 134 
122 139 
123 124 
123 125 
123 126 
123 127 
123 128 
123 129 
123 130 
123 131 
123 132 
123 135 
123 140 
124 125 
124 126 
124 127 
124 128 
124 129 
124 130 
124 131 
124 132 
124 136 
124 138 
125 126 
125 127 
125 128 
125 129 
125 130 
125 131 
125 132 
125 137 
125 142 
126 127 
126 128 
126 129 
126 130 
126 131 
126 132 
126 135 
126 138 
127 128 
127 129 
127 130 
127 131 
127 132 
127 139 
127 144 
128 129 
128 130 
128 131 
128 132 
128 136 
128 140 
129 130 
129 131 
129 132 
129 133 
129 141 
130 131 
130 132 
130 134 
130 142 
131 132 
131 141 
131 143 
132 143 
132 144 
133 134 
133 135 
133 136 
133 137 
133 138 
133 139 
133 140 
133 141 
133 142 
133 143 
133 144 
134 135 
134 136 
134 137 
134 138 
134 139 
134 140 
134 141 
134 142 
134 143 
134 144 
135 136 
135 137 
135 138 
135 139 
135 140 
135 141 
135 142 
135 143 
135 144 
136 137 
136 138 
136 139 
136 140 
136 141 
136 142 
136 143 
136 144 
137 138 
137 139 
137 140 
137 141 
137 142 
137 143 
137 144 
138 139 
138 140 
138 141 
138 142 
138 143 
138 144 
139 140 
139 141 
139 142 
139 143 
139 144 
140 141 
140 142 
140 143 
140 144 
141 142 
141 143 
141 144 
142 143 
142 144 
143 144 
